% File represents an instance of a Composite Structure problem to be solved by a CP framework
% Created on 2025-03-26 10:41:23.227
T = 50;
n = 16;
m = 24;
edges = [(1, 2),
(5, 6),
(9, 10),
(13, 14),
(2, 3),
(6, 7),
(10, 11),
(14, 15),
(3, 4),
(7, 8),
(11, 12),
(15, 16),
(1, 5),
(5, 9),
(9, 13),
(2, 6),
(6, 10),
(10, 14),
(3, 7),
(7, 11),
(15, 11),
(4, 8),
(8, 12),
(16, 12)];
counts = [|8, 18, 8, 16,
|8, 16, 8, 12,
|8, 16, 8, 6,
|6, 14, 6, 6,
|6, 18, 6, 14,
|6, 14, 6, 12,
|6, 14, 6, 6,
|6, 8, 6, 6,
|6, 18, 6, 8,
|6, 14, 6, 6,
|6, 12, 6, 2,
|6, 6, 6, 2,
|6, 16, 6, 8,
|6, 14, 6, 4,
|6, 14, 6, 2,
|6, 8, 6, 2|];
